unsat
(error "line 5457 column 17: model is not available")
(error "line 5458 column 17: model is not available")
(error "line 5459 column 18: model is not available")
(error "line 5460 column 19: model is not available")
(error "line 5461 column 19: model is not available")
(error "line 5462 column 19: model is not available")
(error "line 5463 column 19: model is not available")
(error "line 5464 column 19: model is not available")
(error "line 5465 column 19: model is not available")
(error "line 5466 column 19: model is not available")
(error "line 5467 column 19: model is not available")
(error "line 5468 column 19: model is not available")
(error "line 5469 column 19: model is not available")
(error "line 5470 column 18: model is not available")
(error "line 5471 column 19: model is not available")
(error "line 5472 column 19: model is not available")
(error "line 5473 column 19: model is not available")
(error "line 5474 column 19: model is not available")
(error "line 5475 column 19: model is not available")
(error "line 5476 column 19: model is not available")
(error "line 5477 column 19: model is not available")
(error "line 5478 column 19: model is not available")
(error "line 5479 column 19: model is not available")
(error "line 5480 column 19: model is not available")
(error "line 5481 column 18: model is not available")
(error "line 5482 column 19: model is not available")
(error "line 5483 column 19: model is not available")
(error "line 5484 column 19: model is not available")
(error "line 5485 column 19: model is not available")
(error "line 5486 column 19: model is not available")
(error "line 5487 column 19: model is not available")
(error "line 5488 column 19: model is not available")
(error "line 5489 column 19: model is not available")
(error "line 5490 column 19: model is not available")
(error "line 5491 column 19: model is not available")
(error "line 5492 column 18: model is not available")
(error "line 5493 column 19: model is not available")
(error "line 5494 column 19: model is not available")
(error "line 5495 column 19: model is not available")
(error "line 5496 column 19: model is not available")
(error "line 5497 column 19: model is not available")
(error "line 5498 column 19: model is not available")
(error "line 5499 column 19: model is not available")
(error "line 5500 column 19: model is not available")
(error "line 5501 column 19: model is not available")
(error "line 5502 column 19: model is not available")
(error "line 5503 column 18: model is not available")
(error "line 5504 column 19: model is not available")
(error "line 5505 column 19: model is not available")
(error "line 5506 column 19: model is not available")
(error "line 5507 column 19: model is not available")
(error "line 5508 column 19: model is not available")
(error "line 5509 column 19: model is not available")
(error "line 5510 column 19: model is not available")
(error "line 5511 column 19: model is not available")
(error "line 5512 column 19: model is not available")
(error "line 5513 column 19: model is not available")
(error "line 5514 column 18: model is not available")
(error "line 5515 column 19: model is not available")
(error "line 5516 column 19: model is not available")
(error "line 5517 column 19: model is not available")
(error "line 5518 column 19: model is not available")
(error "line 5519 column 19: model is not available")
(error "line 5520 column 19: model is not available")
(error "line 5521 column 19: model is not available")
(error "line 5522 column 19: model is not available")
(error "line 5523 column 19: model is not available")
(error "line 5524 column 19: model is not available")
(error "line 5525 column 18: model is not available")
(error "line 5526 column 19: model is not available")
(error "line 5527 column 19: model is not available")
(error "line 5528 column 19: model is not available")
(error "line 5529 column 19: model is not available")
(error "line 5530 column 19: model is not available")
(error "line 5531 column 19: model is not available")
(error "line 5532 column 19: model is not available")
(error "line 5533 column 19: model is not available")
(error "line 5534 column 19: model is not available")
(error "line 5535 column 19: model is not available")
(error "line 5536 column 18: model is not available")
(error "line 5537 column 19: model is not available")
(error "line 5538 column 19: model is not available")
(error "line 5539 column 19: model is not available")
(error "line 5540 column 19: model is not available")
(error "line 5541 column 19: model is not available")
(error "line 5542 column 19: model is not available")
(error "line 5543 column 19: model is not available")
(error "line 5544 column 19: model is not available")
(error "line 5545 column 19: model is not available")
(error "line 5546 column 19: model is not available")
(error "line 5547 column 18: model is not available")
(error "line 5548 column 19: model is not available")
(error "line 5549 column 19: model is not available")
(error "line 5550 column 19: model is not available")
(error "line 5551 column 19: model is not available")
(error "line 5552 column 19: model is not available")
(error "line 5553 column 19: model is not available")
(error "line 5554 column 19: model is not available")
(error "line 5555 column 19: model is not available")
(error "line 5556 column 19: model is not available")
(error "line 5557 column 19: model is not available")
(error "line 5558 column 18: model is not available")
(error "line 5559 column 19: model is not available")
(error "line 5560 column 19: model is not available")
(error "line 5561 column 19: model is not available")
(error "line 5562 column 19: model is not available")
(error "line 5563 column 19: model is not available")
(error "line 5564 column 19: model is not available")
(error "line 5565 column 19: model is not available")
(error "line 5566 column 19: model is not available")
(error "line 5567 column 19: model is not available")
(error "line 5568 column 19: model is not available")
(error "line 5569 column 17: model is not available")
(error "line 5570 column 18: model is not available")
(error "line 5571 column 19: model is not available")
(error "line 5572 column 19: model is not available")
(error "line 5573 column 19: model is not available")
(error "line 5574 column 19: model is not available")
(error "line 5575 column 19: model is not available")
(error "line 5576 column 18: model is not available")
(error "line 5577 column 18: model is not available")
(error "line 5578 column 18: model is not available")
(error "line 5579 column 18: model is not available")
(error "line 5580 column 18: model is not available")
(error "line 5581 column 18: model is not available")
(error "line 5582 column 18: model is not available")
(error "line 5583 column 18: model is not available")
(error "line 5584 column 18: model is not available")
(error "line 5585 column 17: model is not available")
(error "line 5586 column 18: model is not available")
(error "line 5587 column 18: model is not available")
(error "line 5588 column 18: model is not available")
(error "line 5589 column 18: model is not available")
(error "line 5590 column 18: model is not available")
(error "line 5591 column 18: model is not available")
(error "line 5592 column 18: model is not available")
(error "line 5593 column 18: model is not available")
(error "line 5594 column 18: model is not available")
(error "line 5595 column 18: model is not available")
(error "line 5596 column 17: model is not available")
(error "line 5597 column 18: model is not available")
(error "line 5598 column 18: model is not available")
(error "line 5599 column 18: model is not available")
(error "line 5600 column 18: model is not available")
(error "line 5601 column 18: model is not available")
(error "line 5602 column 18: model is not available")
(error "line 5603 column 18: model is not available")
(error "line 5604 column 18: model is not available")
(error "line 5605 column 18: model is not available")
(error "line 5606 column 18: model is not available")
(error "line 5607 column 17: model is not available")
(error "line 5608 column 18: model is not available")
(error "line 5609 column 18: model is not available")
(error "line 5610 column 18: model is not available")
(error "line 5611 column 18: model is not available")
(error "line 5612 column 18: model is not available")
(error "line 5613 column 18: model is not available")
(error "line 5614 column 18: model is not available")
(error "line 5615 column 18: model is not available")
(error "line 5616 column 18: model is not available")
(error "line 5617 column 18: model is not available")
(error "line 5618 column 17: model is not available")
(error "line 5619 column 18: model is not available")
(error "line 5620 column 18: model is not available")
(error "line 5621 column 18: model is not available")
(error "line 5622 column 18: model is not available")
(error "line 5623 column 18: model is not available")
(error "line 5624 column 18: model is not available")
(error "line 5625 column 18: model is not available")
(error "line 5626 column 18: model is not available")
(error "line 5627 column 18: model is not available")
(error "line 5628 column 18: model is not available")
(error "line 5629 column 17: model is not available")
(error "line 5630 column 18: model is not available")
(error "line 5631 column 18: model is not available")
(error "line 5632 column 18: model is not available")
(error "line 5633 column 18: model is not available")
(error "line 5634 column 18: model is not available")
(error "line 5635 column 18: model is not available")
(error "line 5636 column 18: model is not available")
(error "line 5637 column 18: model is not available")
(error "line 5638 column 18: model is not available")
(error "line 5639 column 18: model is not available")
(error "line 5640 column 17: model is not available")
(error "line 5641 column 18: model is not available")
(error "line 5642 column 18: model is not available")
(error "line 5643 column 18: model is not available")
(error "line 5644 column 18: model is not available")
(error "line 5645 column 18: model is not available")
(error "line 5646 column 18: model is not available")
(error "line 5647 column 18: model is not available")
(error "line 5648 column 18: model is not available")
(error "line 5649 column 18: model is not available")
(error "line 5650 column 18: model is not available")
(error "line 5651 column 17: model is not available")
(error "line 5652 column 18: model is not available")
(error "line 5653 column 18: model is not available")
(error "line 5654 column 18: model is not available")
(error "line 5655 column 18: model is not available")
(error "line 5656 column 18: model is not available")
(error "line 5657 column 18: model is not available")
(error "line 5658 column 18: model is not available")
(error "line 5659 column 18: model is not available")
(error "line 5660 column 18: model is not available")
(error "line 5661 column 18: model is not available")
(error "line 5662 column 18: model is not available")
(error "line 5663 column 25: model is not available")
(error "line 5664 column 18: model is not available")
(error "line 5665 column 25: model is not available")
(error "line 5666 column 18: model is not available")
(error "line 5667 column 25: model is not available")
(error "line 5668 column 18: model is not available")
(error "line 5669 column 25: model is not available")
(error "line 5670 column 18: model is not available")
(error "line 5671 column 25: model is not available")
(error "line 5672 column 38: model is not available")
(error "line 5673 column 45: model is not available")
(error "line 5674 column 38: model is not available")
(error "line 5675 column 45: model is not available")
(error "line 5676 column 46: model is not available")
(error "line 5677 column 53: model is not available")
(error "line 5678 column 40: model is not available")
(error "line 5679 column 47: model is not available")
(error "line 5680 column 38: model is not available")
(error "line 5681 column 45: model is not available")
(error "line 5682 column 38: model is not available")
(error "line 5683 column 45: model is not available")
(error "line 5684 column 41: model is not available")
(error "line 5685 column 48: model is not available")
(error "line 5686 column 41: model is not available")
(error "line 5687 column 48: model is not available")
(error "line 5688 column 41: model is not available")
(error "line 5689 column 48: model is not available")
(error "line 5690 column 41: model is not available")
(error "line 5691 column 41: model is not available")
(error "line 5692 column 48: model is not available")
(error "line 5693 column 41: model is not available")
(error "line 5694 column 48: model is not available")
(error "line 5695 column 41: model is not available")
(error "line 5696 column 48: model is not available")
(error "line 5697 column 37: model is not available")
(error "line 5698 column 44: model is not available")
(error "line 5699 column 42: model is not available")
(error "line 5700 column 42: model is not available")
(error "line 5701 column 42: model is not available")
(error "line 5702 column 38: model is not available")
(error "line 5703 column 38: model is not available")
(error "line 5704 column 38: model is not available")
(error "line 5705 column 38: model is not available")
(error "line 5706 column 38: model is not available")
(error "line 5707 column 41: model is not available")
(error "line 5708 column 48: model is not available")
(error "line 5709 column 41: model is not available")
(error "line 5710 column 48: model is not available")
(error "line 5711 column 41: model is not available")
(error "line 5712 column 48: model is not available")
(error "line 5713 column 41: model is not available")
(error "line 5714 column 48: model is not available")
(error "line 5715 column 41: model is not available")
(error "line 5716 column 48: model is not available")
(error "line 5717 column 41: model is not available")
(error "line 5718 column 48: model is not available")
(error "line 5719 column 41: model is not available")
(error "line 5720 column 48: model is not available")
(error "line 5721 column 19: model is not available")
(error "line 5722 column 26: model is not available")
(error "line 5723 column 20: model is not available")
(error "line 5724 column 27: model is not available")
(error "line 5725 column 19: model is not available")
(error "line 5726 column 26: model is not available")
(error "line 5727 column 19: model is not available")
(error "line 5728 column 26: model is not available")
(error "line 5729 column 19: model is not available")
(error "line 5730 column 26: model is not available")
(error "line 5731 column 19: model is not available")
(error "line 5732 column 26: model is not available")
(error "line 5733 column 19: model is not available")
(error "line 5734 column 26: model is not available")
(error "line 5735 column 19: model is not available")
(error "line 5736 column 26: model is not available")
(error "line 5737 column 19: model is not available")
(error "line 5738 column 26: model is not available")
(error "line 5739 column 19: model is not available")
(error "line 5740 column 26: model is not available")
(error "line 5741 column 19: model is not available")
(error "line 5742 column 26: model is not available")
(error "line 5743 column 20: model is not available")
(error "line 5744 column 27: model is not available")
(error "line 5745 column 19: model is not available")
(error "line 5746 column 26: model is not available")
(error "line 5747 column 19: model is not available")
(error "line 5748 column 26: model is not available")
(error "line 5749 column 19: model is not available")
(error "line 5750 column 26: model is not available")
(error "line 5751 column 19: model is not available")
(error "line 5752 column 26: model is not available")
(error "line 5753 column 19: model is not available")
(error "line 5754 column 26: model is not available")
(error "line 5755 column 19: model is not available")
(error "line 5756 column 26: model is not available")
(error "line 5757 column 19: model is not available")
(error "line 5758 column 26: model is not available")
(error "line 5759 column 19: model is not available")
(error "line 5760 column 26: model is not available")
(error "line 5761 column 38: model is not available")
(error "line 5762 column 39: model is not available")
(error "line 5763 column 39: model is not available")
(error "line 5764 column 39: model is not available")
(error "line 5765 column 39: model is not available")
(error "line 5766 column 39: model is not available")
(error "line 5767 column 39: model is not available")
(error "line 5768 column 39: model is not available")
(error "line 5769 column 39: model is not available")
(error "line 5770 column 39: model is not available")
(error "line 5771 column 39: model is not available")
(error "line 5772 column 38: model is not available")
(error "line 5773 column 39: model is not available")
(error "line 5774 column 39: model is not available")
(error "line 5775 column 39: model is not available")
(error "line 5776 column 39: model is not available")
(error "line 5777 column 39: model is not available")
(error "line 5778 column 39: model is not available")
(error "line 5779 column 39: model is not available")
(error "line 5780 column 39: model is not available")
(error "line 5781 column 39: model is not available")
(error "line 5782 column 39: model is not available")
(error "line 5783 column 38: model is not available")
(error "line 5784 column 39: model is not available")
(error "line 5785 column 38: model is not available")
(error "line 5786 column 38: model is not available")
(error "line 5787 column 38: model is not available")
(error "line 5788 column 38: model is not available")
(error "line 5789 column 38: model is not available")
(error "line 5790 column 38: model is not available")
(error "line 5791 column 36: model is not available")
(error "line 5792 column 36: model is not available")
(error "line 5793 column 36: model is not available")
(error "line 5794 column 30: model is not available")
(error "line 5795 column 32: model is not available")
(error "line 5796 column 39: model is not available")
(error "line 5797 column 32: model is not available")
(error "line 5798 column 39: model is not available")
(error "line 5799 column 32: model is not available")
(error "line 5800 column 39: model is not available")
(error "line 5801 column 32: model is not available")
(error "line 5802 column 39: model is not available")
(error "line 5803 column 30: model is not available")
(error "line 5804 column 32: model is not available")
(error "line 5805 column 39: model is not available")
(error "line 5806 column 32: model is not available")
(error "line 5807 column 39: model is not available")
(error "line 5808 column 32: model is not available")
(error "line 5809 column 39: model is not available")
(error "line 5810 column 32: model is not available")
(error "line 5811 column 39: model is not available")
(error "line 5812 column 53: model is not available")
(error "line 5813 column 52: model is not available")
(error "line 5814 column 54: model is not available")
(error "line 5815 column 54: model is not available")
(error "line 5816 column 54: model is not available")
(error "line 5817 column 54: model is not available")
(error "line 5818 column 53: model is not available")
(error "line 5819 column 53: model is not available")
(error "line 5820 column 52: model is not available")
(error "line 5821 column 51: model is not available")
(error "line 5822 column 52: model is not available")
(error "line 5823 column 52: model is not available")
(error "line 5824 column 54: model is not available")
(error "line 5825 column 54: model is not available")
(error "line 5826 column 54: model is not available")
(error "line 5827 column 54: model is not available")
(error "line 5828 column 53: model is not available")
(error "line 5829 column 53: model is not available")
(error "line 5830 column 52: model is not available")
(error "line 5831 column 51: model is not available")
(error "line 5832 column 53: model is not available")
(error "line 5833 column 53: model is not available")
(error "line 5834 column 53: model is not available")
(error "line 5835 column 52: model is not available")
(error "line 5836 column 53: model is not available")
(error "line 5837 column 53: model is not available")
(error "line 5838 column 52: model is not available")
(error "line 5839 column 53: model is not available")
(error "line 5840 column 52: model is not available")
(error "line 5841 column 53: model is not available")
(error "line 5842 column 53: model is not available")
(error "line 5843 column 52: model is not available")
(error "line 5844 column 53: model is not available")
(error "line 5845 column 52: model is not available")
(error "line 5846 column 53: model is not available")
(error "line 5847 column 53: model is not available")
(error "line 5848 column 52: model is not available")
(error "line 5849 column 53: model is not available")
(error "line 5850 column 53: model is not available")
(error "line 5851 column 52: model is not available")
(error "line 5852 column 53: model is not available")
(error "line 5853 column 52: model is not available")
(error "line 5854 column 54: model is not available")
(error "line 5855 column 53: model is not available")
(error "line 5856 column 54: model is not available")
(error "line 5857 column 54: model is not available")
(error "line 5858 column 54: model is not available")
(error "line 5859 column 54: model is not available")
(error "line 5860 column 53: model is not available")
(error "line 5861 column 53: model is not available")
(error "line 5862 column 53: model is not available")
(error "line 5863 column 53: model is not available")
(error "line 5864 column 52: model is not available")
(error "line 5865 column 53: model is not available")
(error "line 5866 column 53: model is not available")
(error "line 5867 column 52: model is not available")
(error "line 5868 column 53: model is not available")
(error "line 5869 column 53: model is not available")
(error "line 5870 column 52: model is not available")
(error "line 5871 column 53: model is not available")
(error "line 5872 column 53: model is not available")
(error "line 5873 column 52: model is not available")
(error "line 5874 column 51: model is not available")
(error "line 5875 column 52: model is not available")
(error "line 5876 column 52: model is not available")
(error "line 5877 column 52: model is not available")
(error "line 5878 column 53: model is not available")
(error "line 5879 column 52: model is not available")
(error "line 5880 column 52: model is not available")
(error "line 5881 column 52: model is not available")
(error "line 5882 column 51: model is not available")
(error "line 5883 column 52: model is not available")
(error "line 5884 column 52: model is not available")
(error "line 5885 column 52: model is not available")
(error "line 5886 column 51: model is not available")
(error "line 5887 column 52: model is not available")
(error "line 5888 column 51: model is not available")
(error "line 5889 column 52: model is not available")
(error "line 5890 column 51: model is not available")
(error "line 5891 column 53: model is not available")
(error "line 5892 column 52: model is not available")
(error "line 5893 column 53: model is not available")
(error "line 5894 column 53: model is not available")
(error "line 5895 column 53: model is not available")
(error "line 5896 column 53: model is not available")
(error "line 5897 column 52: model is not available")
(error "line 5898 column 52: model is not available")
(error "line 5899 column 52: model is not available")
(error "line 5900 column 51: model is not available")
(error "line 5901 column 52: model is not available")
(error "line 5902 column 52: model is not available")
(error "line 5903 column 51: model is not available")
(error "line 5904 column 53: model is not available")
(error "line 5905 column 53: model is not available")
(error "line 5906 column 53: model is not available")
(error "line 5907 column 52: model is not available")
(error "line 5908 column 52: model is not available")
(error "line 5909 column 54: model is not available")
(error "line 5910 column 54: model is not available")
(error "line 5911 column 54: model is not available")
(error "line 5912 column 53: model is not available")
(error "line 5913 column 53: model is not available")
(error "line 5914 column 54: model is not available")
(error "line 5915 column 54: model is not available")
(error "line 5916 column 54: model is not available")
(error "line 5917 column 53: model is not available")
(error "line 5918 column 53: model is not available")
(error "line 5919 column 53: model is not available")
(error "line 5920 column 53: model is not available")
(error "line 5921 column 52: model is not available")
(error "line 5922 column 53: model is not available")
(error "line 5923 column 52: model is not available")
(error "line 5924 column 54: model is not available")
(error "line 5925 column 53: model is not available")
(error "line 5926 column 54: model is not available")
(error "line 5927 column 54: model is not available")
(error "line 5928 column 54: model is not available")
(error "line 5929 column 54: model is not available")
(error "line 5930 column 53: model is not available")
(error "line 5931 column 53: model is not available")
(error "line 5932 column 54: model is not available")
(error "line 5933 column 54: model is not available")
(error "line 5934 column 54: model is not available")
(error "line 5935 column 53: model is not available")
(error "line 5936 column 54: model is not available")
(error "line 5937 column 53: model is not available")
(error "line 5938 column 54: model is not available")
(error "line 5939 column 54: model is not available")
(error "line 5940 column 54: model is not available")
(error "line 5941 column 53: model is not available")
(error "line 5942 column 54: model is not available")
(error "line 5943 column 53: model is not available")
(error "line 5944 column 51: model is not available")
(error "line 5945 column 52: model is not available")
(error "line 5946 column 52: model is not available")
(error "line 5947 column 52: model is not available")
(error "line 5948 column 53: model is not available")
(error "line 5949 column 52: model is not available")
(error "line 5950 column 52: model is not available")
(error "line 5951 column 52: model is not available")
(error "line 5952 column 51: model is not available")
(error "line 5953 column 52: model is not available")
(error "line 5954 column 52: model is not available")
(error "line 5955 column 52: model is not available")
(error "line 5956 column 51: model is not available")
(error "line 5957 column 52: model is not available")
(error "line 5958 column 52: model is not available")
(error "line 5959 column 51: model is not available")
(error "line 5960 column 51: model is not available")
(error "line 5961 column 53: model is not available")
(error "line 5962 column 52: model is not available")
(error "line 5963 column 53: model is not available")
(error "line 5964 column 53: model is not available")
(error "line 5965 column 53: model is not available")
(error "line 5966 column 53: model is not available")
(error "line 5967 column 52: model is not available")
(error "line 5968 column 52: model is not available")
(error "line 5969 column 52: model is not available")
(error "line 5970 column 52: model is not available")
(error "line 5971 column 52: model is not available")
(error "line 5972 column 51: model is not available")
(error "line 5973 column 51: model is not available")
(error "line 5974 column 57: model is not available")
(error "line 5975 column 57: model is not available")
(error "line 5976 column 57: model is not available")
(error "line 5977 column 58: model is not available")
(error "line 5978 column 58: model is not available")
(error "line 5979 column 58: model is not available")
(error "line 5980 column 58: model is not available")
(error "line 5981 column 57: model is not available")
(error "line 5982 column 57: model is not available")
(error "line 5983 column 57: model is not available")
(error "line 5984 column 58: model is not available")
(error "line 5985 column 58: model is not available")
(error "line 5986 column 58: model is not available")
(error "line 5987 column 58: model is not available")
(error "line 5988 column 57: model is not available")
(error "line 5989 column 57: model is not available")
(error "line 5990 column 58: model is not available")
(error "line 5991 column 57: model is not available")
(error "line 5992 column 58: model is not available")
(error "line 5993 column 57: model is not available")
(error "line 5994 column 58: model is not available")
(error "line 5995 column 58: model is not available")
(error "line 5996 column 57: model is not available")
(error "line 5997 column 58: model is not available")
(error "line 5998 column 58: model is not available")
(error "line 5999 column 57: model is not available")
(error "line 6000 column 57: model is not available")
(error "line 6001 column 57: model is not available")
(error "line 6002 column 58: model is not available")
(error "line 6003 column 57: model is not available")
(error "line 6004 column 58: model is not available")
(error "line 6005 column 58: model is not available")
(error "line 6006 column 57: model is not available")
(error "line 6007 column 57: model is not available")
(error "line 6008 column 56: model is not available")
(error "line 6009 column 58: model is not available")
(error "line 6010 column 58: model is not available")
(error "line 6011 column 58: model is not available")
(error "line 6012 column 57: model is not available")
(error "line 6013 column 58: model is not available")
(error "line 6014 column 57: model is not available")
(error "line 6015 column 57: model is not available")
(error "line 6016 column 56: model is not available")
(error "line 6017 column 46: model is not available")
(error "line 6018 column 46: model is not available")
(error "line 6019 column 46: model is not available")
(error "line 6020 column 46: model is not available")
(error "line 6021 column 54: model is not available")
(error "line 6022 column 54: model is not available")
(error "line 6023 column 54: model is not available")
(error "line 6024 column 54: model is not available")
(error "line 6025 column 54: model is not available")
(error "line 6026 column 54: model is not available")
(error "line 6027 column 40: model is not available")
(error "line 6028 column 40: model is not available")
(error "line 6029 column 40: model is not available")
(error "line 6030 column 40: model is not available")
(error "line 6031 column 41: model is not available")
(error "line 6032 column 41: model is not available")
(error "line 6033 column 41: model is not available")
(error "line 6034 column 41: model is not available")
(error "line 6035 column 50: model is not available")
(error "line 6036 column 50: model is not available")
(error "line 6037 column 50: model is not available")
(error "line 6038 column 50: model is not available")
(error "line 6039 column 43: model is not available")
(error "line 6040 column 43: model is not available")
(error "line 6041 column 43: model is not available")
(error "line 6042 column 43: model is not available")
(error "line 6043 column 44: model is not available")
(error "line 6044 column 44: model is not available")
(error "line 6045 column 45: model is not available")
(error "line 6046 column 45: model is not available")
(error "line 6047 column 45: model is not available")
(error "line 6048 column 45: model is not available")
(error "line 6049 column 45: model is not available")
(error "line 6050 column 44: model is not available")
(error "line 6051 column 44: model is not available")
(error "line 6052 column 44: model is not available")
(error "line 6053 column 44: model is not available")
(error "line 6054 column 44: model is not available")
(error "line 6055 column 44: model is not available")
(error "line 6056 column 44: model is not available")
(error "line 6057 column 44: model is not available")
(error "line 6058 column 44: model is not available")
(error "line 6059 column 44: model is not available")
(error "line 6060 column 41: model is not available")
(error "line 6061 column 41: model is not available")
(error "line 6062 column 44: model is not available")
(error "line 6063 column 44: model is not available")
(error "line 6064 column 26: model is not available")
(error "line 6065 column 30: model is not available")
(error "line 6066 column 30: model is not available")
(error "line 6067 column 36: model is not available")
(error "line 6068 column 36: model is not available")
(error "line 6069 column 36: model is not available")
(error "line 6070 column 28: model is not available")
(error "line 6071 column 36: model is not available")
(error "line 6072 column 36: model is not available")
(error "line 6073 column 36: model is not available")
(error "line 6074 column 28: model is not available")
(error "line 6075 column 18: model is not available")
(error "line 6076 column 25: model is not available")
(error "line 6077 column 18: model is not available")
(error "line 6078 column 25: model is not available")
(error "line 6079 column 18: model is not available")
(error "line 6080 column 25: model is not available")
(error "line 6081 column 18: model is not available")
(error "line 6082 column 25: model is not available")
(error "line 6083 column 18: model is not available")
(error "line 6084 column 25: model is not available")
(error "line 6085 column 18: model is not available")
(error "line 6086 column 25: model is not available")
(error "line 6087 column 18: model is not available")
(error "line 6088 column 25: model is not available")
(error "line 6089 column 18: model is not available")
(error "line 6090 column 25: model is not available")
(error "line 6091 column 18: model is not available")
(error "line 6092 column 25: model is not available")
(error "line 6093 column 18: model is not available")
(error "line 6094 column 25: model is not available")
(error "line 6095 column 19: model is not available")
(error "line 6096 column 26: model is not available")
(error "line 6097 column 19: model is not available")
(error "line 6098 column 26: model is not available")
(error "line 6099 column 19: model is not available")
(error "line 6100 column 26: model is not available")
(error "line 6101 column 19: model is not available")
(error "line 6102 column 26: model is not available")
(error "line 6103 column 19: model is not available")
(error "line 6104 column 26: model is not available")
(error "line 6105 column 19: model is not available")
(error "line 6106 column 26: model is not available")
(error "line 6107 column 19: model is not available")
(error "line 6108 column 26: model is not available")
(error "line 6109 column 19: model is not available")
(error "line 6110 column 26: model is not available")
(error "line 6111 column 19: model is not available")
(error "line 6112 column 26: model is not available")
(error "line 6113 column 19: model is not available")
(error "line 6114 column 26: model is not available")
(error "line 6115 column 18: model is not available")
(error "line 6116 column 25: model is not available")
(error "line 6117 column 19: model is not available")
(error "line 6118 column 26: model is not available")
(error "line 6119 column 19: model is not available")
(error "line 6120 column 26: model is not available")
(error "line 6121 column 19: model is not available")
(error "line 6122 column 26: model is not available")
(error "line 6123 column 19: model is not available")
(error "line 6124 column 26: model is not available")
(error "line 6125 column 18: model is not available")
(error "line 6126 column 25: model is not available")
(error "line 6127 column 18: model is not available")
(error "line 6128 column 25: model is not available")
(error "line 6129 column 18: model is not available")
(error "line 6130 column 25: model is not available")
(error "line 6131 column 18: model is not available")
(error "line 6132 column 25: model is not available")
(error "line 6133 column 18: model is not available")
(error "line 6134 column 25: model is not available")
(error "line 6135 column 18: model is not available")
(error "line 6136 column 25: model is not available")
(error "line 6137 column 18: model is not available")
(error "line 6138 column 25: model is not available")
(error "line 6140 column 10: model is not available")
(:added-eqs                      636
 :arith-bound-propagations-cheap 215
 :arith-bound-propagations-lp    897
 :arith-conflicts                12
 :arith-lower                    443
 :arith-make-feasible            121
 :arith-max-columns              455
 :arith-max-rows                 365
 :arith-propagations             215
 :arith-upper                    370
 :array-ax1                      2
 :binary-propagations            4005
 :bv-bit2core                    5226
 :bv-diseqs                      1
 :bv-dynamic-diseqs              55
 :bv->core-eq                    3
 :conflicts                      76
 :decisions                      155
 :del-clause                     709
 :eliminated-vars                33
 :max-memory                     7.69
 :memory                         3.99
 :minimized-lits                 55
 :mk-bool-var                    2583
 :mk-clause                      1977
 :num-allocs                     9788611
 :num-checks                     1
 :propagations                   6135
 :rlimit-count                   530011
 :time                           0.06
 :total-time                     0.08)

real	0m0.085s
user	0m0.078s
sys	0m0.007s
State: RE Run_time: 0.08642363548278809